\ LP format - for model browsing. Use MPS format to capture full model detail.
Minimize
  0 B24(0) + 0 B29(0) + 0 B30(0) + 0 B32(0) + 0 B33(0) + 0 B37(0) + 0 B39(0)
   + 0 B40(0) + 0 B43(0) + 0 B50(0) + 0 B51(0) + 0 B52(0) + 0 B55(0)
   + 0 B60(0) + 0 B61(0) + 0 B62(0) + 0 B63(0) + 0 B66(0) + 0 B68(0)
   + 0 B69(0) + 0 B70(0) + 0 B71(0) + 0 B72(0) + 0 B73(0) + 0 B74(0)
   + 0 B76(0) + 0 B78(0) + 0 B80(0) + 0 B81(0) + 0 B82(0) + 0 B83(0)
   + 0 B84(0) + 0 B85(0) + 0 B86(0) + 0 B89(0) + 0 B94(0) + 0 B96(0)
   + 0 B97(0) + 0 B98(0) + 0 B99(0) + 0 B100(0) + 0 B101(0) + 0 B102(0)
   + 0 B103(0) + 0 B108(0) + 0 B109(0) + 0 B110(0) + 0 B111(0) + 0 B112(0)
   + 0 B113(0) + 0 B114(0) + 0 B115(0) + 0 B116(0) + 0 B117(0) + 0 B118(0)
   + 0 B119(0) + 0 B120(0) + 0 B121(0) + 0 B122(0) + 0 B123(0) + 0 B124(0)
   + 0 B125(0) + 0 B127(0) + 0 B128(0) + 0 B132(0) + 0 B133(0) + 0 B134(0)
   + 0 B135(0) + 0 B136(0) + 0 B137(0) + 0 B138(0) + 0 B139(0) + 0 B140(0)
   + 0 B141(0) + 0 B144(0) + 0 B145(0) + 0 B146(0) + 0 B147(0) + 0 B148(0)
   + 0 B149(0) + 0 B150(0) + 0 B151(0) + 0 B152(0) + 0 B154(0) + 0 B156(0)
   + 0 B157(0) + 0 B158(0) + 0 B159(0) + 0 B160(0) + 0 B161(0) + 0 B162(0)
   + 0 B163(0) + 0 B164(0) + 0 B167(0) + I192(1)
Subject To
 c0: B0(16) + B1(10) = 1
 c1: B2(18) + B3(16) = 1
 c2: B4(17) + B5(15) = 1
 c3: B6(14) + B7(12) = 1
 c4: B8(14) + B9(12) = 1
 c5: B10(13) + B11(15) = 1
 c6: B12(12) + B13(18) = 1
 c7: B14(10) + B15(10) = 1
 c8: B16(12) + B17(18) = 1
 c9: B18(12) + B19(18) = 1
 c10: B20(12) + B21(14) = 1
 c11: B22(17) + B23(13) = 1
 c12: - 1e+06 B0(16) + C168(17) <= 0
 c13: - 1e+06 B1(10) + C169(11) <= 0
 c14: - 1e+06 B2(18) + C170(19) <= 0
 c15: - 1e+06 B3(16) + C171(17) <= 0
 c16: - 1e+06 B4(17) + C172(18) <= 0
 c17: - 1e+06 B5(15) + C173(16) <= 0
 c18: - 1e+06 B6(14) + C174(16) <= 0
 c19: - 1e+06 B7(12) + C175(14) <= 0
 c20: - 1e+06 B8(14) + C176(14) <= 0
 c21: - 1e+06 B9(12) + C177(12) <= 0
 c22: - 1e+06 B10(13) + C178(14) <= 0
 c23: - 1e+06 B11(15) + C179(16) <= 0
 c24: - 1e+06 B12(12) + C180(13) <= 0
 c25: - 1e+06 B13(18) + C181(19) <= 0
 c26: - 1e+06 B14(10) + C182(11) <= 0
 c27: - 1e+06 B15(10) + C183(11) <= 0
 c28: - 1e+06 B16(12) + C184(12) <= 0
 c29: - 1e+06 B17(18) + C185(18) <= 0
 c30: - 1e+06 B18(12) + C186(13) <= 0
 c31: - 1e+06 B19(18) + C187(19) <= 0
 c32: - 1e+06 B20(12) + C188(12) <= 0
 c33: - 1e+06 B21(14) + C189(14) <= 0
 c34: - 1e+06 B22(17) + C190(19) <= 0
 c35: - 1e+06 B23(13) + C191(15) <= 0
 c36: - 1e+06 B0(16) - 1e+06 B3(16) - 1e+06 B25(2) + C168(17) - C171(17)
   >= -2.999989e+06
 c37: - 1e+06 B0(16) - 1e+06 B3(16) + 1e+06 B25(2) - C168(17) + C171(17)
   >= -1.999993e+06
 c38: - 1e+06 B0(16) - 1e+06 B5(15) - 1e+06 B26(2) + C168(17) - C173(16)
   >= -2.99999e+06
 c39: - 1e+06 B0(16) - 1e+06 B5(15) + 1e+06 B26(2) - C168(17) + C173(16)
   >= -1.999982e+06
 c40: - 1e+06 B1(10) - 1e+06 B7(12) - 1e+06 B27(2) + C169(11) - C175(14)
   >= -2.99999e+06
 c41: - 1e+06 B1(10) - 1e+06 B7(12) + 1e+06 B27(2) - C169(11) + C175(14)
   >= -1.999976e+06
 c42: - 1e+06 B1(10) - 1e+06 B9(12) - 1e+06 B28(2) + C169(11) - C177(12)
   >= -2.999989e+06
 c43: - 1e+06 B1(10) - 1e+06 B9(12) + 1e+06 B28(2) - C169(11) + C177(12)
   >= -1.999988e+06
 c44: - 1e+06 B1(10) - 1e+06 B15(10) - 1e+06 B31(2) + C169(11) - C183(11)
   >= -2.999992e+06
 c45: - 1e+06 B1(10) - 1e+06 B15(10) + 1e+06 B31(2) - C169(11) + C183(11)
   >= -1.999971e+06
 c46: - 1e+06 B0(16) - 1e+06 B21(14) - 1e+06 B34(2) + C168(17) - C189(14)
   >= -2.999992e+06
 c47: - 1e+06 B0(16) - 1e+06 B21(14) + 1e+06 B34(2) - C168(17) + C189(14)
   >= -1.999988e+06
 c48: - 1e+06 B0(16) - 1e+06 B23(13) - 1e+06 B35(2) + C168(17) - C191(15)
   >= -2.999975e+06
 c49: - 1e+06 B0(16) - 1e+06 B23(13) + 1e+06 B35(2) - C168(17) + C191(15)
   >= -1.999988e+06
 c50: - 1e+06 B0(16) - 1e+06 B3(16) - 1e+06 B36(2) - C168(17) + C171(17)
   >= -2.999993e+06
 c51: - 1e+06 B0(16) - 1e+06 B3(16) + 1e+06 B36(2) + C168(17) - C171(17)
   >= -1.999989e+06
 c52: - 1e+06 B2(18) - 1e+06 B4(17) - 1e+06 B38(4) + C170(19) - C172(18)
   >= -2.999982e+06
 c53: - 1e+06 B2(18) - 1e+06 B4(17) + 1e+06 B38(4) - C170(19) + C172(18)
   >= -1.999992e+06
 c54: - 1e+06 B3(16) - 1e+06 B5(15) - 1e+06 B38(4) + C171(17) - C173(16)
   >= -2.99999e+06
 c55: - 1e+06 B3(16) - 1e+06 B5(15) + 1e+06 B38(4) - C171(17) + C173(16)
   >= -1.999991e+06
 c56: - 1e+06 B2(18) - 1e+06 B11(15) - 1e+06 B41(2) + C170(19) - C179(16)
   >= -2.999983e+06
 c57: - 1e+06 B2(18) - 1e+06 B11(15) + 1e+06 B41(2) - C170(19) + C179(16)
   >= -1.99999e+06
 c58: - 1e+06 B2(18) - 1e+06 B13(18) - 1e+06 B42(2) + C170(19) - C181(19)
   >= -2.999988e+06
 c59: - 1e+06 B2(18) - 1e+06 B13(18) + 1e+06 B42(2) - C170(19) + C181(19)
   >= -1.999975e+06
 c60: - 1e+06 B2(18) - 1e+06 B17(18) - 1e+06 B44(2) + C170(19) - C185(18)
   >= -2.999977e+06
 c61: - 1e+06 B2(18) - 1e+06 B17(18) + 1e+06 B44(2) - C170(19) + C185(18)
   >= -1.99998e+06
 c62: - 1e+06 B2(18) - 1e+06 B19(18) - 1e+06 B45(2) + C170(19) - C187(19)
   >= -2.999993e+06
 c63: - 1e+06 B2(18) - 1e+06 B19(18) + 1e+06 B45(2) - C170(19) + C187(19)
   >= -1.999985e+06
 c64: - 1e+06 B3(16) - 1e+06 B21(14) - 1e+06 B46(2) + C171(17) - C189(14)
   >= -2.999996e+06
 c65: - 1e+06 B3(16) - 1e+06 B21(14) + 1e+06 B46(2) - C171(17) + C189(14)
   >= -1.999975e+06
 c66: - 1e+06 B2(18) - 1e+06 B22(17) - 1e+06 B47(4) + C170(19) - C190(19)
   >= -2.999993e+06
 c67: - 1e+06 B2(18) - 1e+06 B22(17) + 1e+06 B47(4) - C170(19) + C190(19)
   >= -1.999975e+06
 c68: - 1e+06 B3(16) - 1e+06 B23(13) - 1e+06 B47(4) + C171(17) - C191(15)
   >= -2.999987e+06
 c69: - 1e+06 B3(16) - 1e+06 B23(13) + 1e+06 B47(4) - C171(17) + C191(15)
   >= -1.999989e+06
 c70: - 1e+06 B0(16) - 1e+06 B5(15) - 1e+06 B48(2) - C168(17) + C173(16)
   >= -2.999982e+06
 c71: - 1e+06 B0(16) - 1e+06 B5(15) + 1e+06 B48(2) + C168(17) - C173(16)
   >= -1.99999e+06
 c72: - 1e+06 B2(18) - 1e+06 B4(17) - 1e+06 B49(4) - C170(19) + C172(18)
   >= -2.999992e+06
 c73: - 1e+06 B2(18) - 1e+06 B4(17) + 1e+06 B49(4) + C170(19) - C172(18)
   >= -1.999982e+06
 c74: - 1e+06 B3(16) - 1e+06 B5(15) - 1e+06 B49(4) - C171(17) + C173(16)
   >= -2.999991e+06
 c75: - 1e+06 B3(16) - 1e+06 B5(15) + 1e+06 B49(4) + C171(17) - C173(16)
   >= -1.99999e+06
 c76: - 1e+06 B4(17) - 1e+06 B11(15) - 1e+06 B53(2) + C172(18) - C179(16)
   >= -2.999991e+06
 c77: - 1e+06 B4(17) - 1e+06 B11(15) + 1e+06 B53(2) - C172(18) + C179(16)
   >= -1.999989e+06
 c78: - 1e+06 B4(17) - 1e+06 B13(18) - 1e+06 B54(2) + C172(18) - C181(19)
   >= -2.99999e+06
 c79: - 1e+06 B4(17) - 1e+06 B13(18) + 1e+06 B54(2) - C172(18) + C181(19)
   >= -1.999983e+06
 c80: - 1e+06 B4(17) - 1e+06 B17(18) - 1e+06 B56(2) + C172(18) - C185(18)
   >= -2.999987e+06
 c81: - 1e+06 B4(17) - 1e+06 B17(18) + 1e+06 B56(2) - C172(18) + C185(18)
   >= -1.999996e+06
 c82: - 1e+06 B4(17) - 1e+06 B19(18) - 1e+06 B57(2) + C172(18) - C187(19)
   >= -2.999991e+06
 c83: - 1e+06 B4(17) - 1e+06 B19(18) + 1e+06 B57(2) - C172(18) + C187(19)
   >= -1.999992e+06
 c84: - 1e+06 B5(15) - 1e+06 B21(14) - 1e+06 B58(2) + C173(16) - C189(14)
   >= -2.99999e+06
 c85: - 1e+06 B5(15) - 1e+06 B21(14) + 1e+06 B58(2) - C173(16) + C189(14)
   >= -1.999994e+06
 c86: - 1e+06 B4(17) - 1e+06 B22(17) - 1e+06 B59(4) + C172(18) - C190(19)
   >= -2.999984e+06
 c87: - 1e+06 B4(17) - 1e+06 B22(17) + 1e+06 B59(4) - C172(18) + C190(19)
   >= -1.999996e+06
 c88: - 1e+06 B5(15) - 1e+06 B23(13) - 1e+06 B59(4) + C173(16) - C191(15)
   >= -2.999989e+06
 c89: - 1e+06 B5(15) - 1e+06 B23(13) + 1e+06 B59(4) - C173(16) + C191(15)
   >= -1.999992e+06
 c90: - 1e+06 B6(14) - 1e+06 B8(14) - 1e+06 B64(4) + C174(16) - C176(14)
   >= -2.999994e+06
 c91: - 1e+06 B6(14) - 1e+06 B8(14) + 1e+06 B64(4) - C174(16) + C176(14)
   >= -1.999992e+06
 c92: - 1e+06 B7(12) - 1e+06 B9(12) - 1e+06 B64(4) + C175(14) - C177(12)
   >= -2.999983e+06
 c93: - 1e+06 B7(12) - 1e+06 B9(12) + 1e+06 B64(4) - C175(14) + C177(12)
   >= -1.999993e+06
 c94: - 1e+06 B6(14) - 1e+06 B10(13) - 1e+06 B65(2) + C174(16) - C178(14)
   >= -2.99999e+06
 c95: - 1e+06 B6(14) - 1e+06 B10(13) + 1e+06 B65(2) - C174(16) + C178(14)
   >= -1.999994e+06
 c96: - 1e+06 B6(14) - 1e+06 B14(10) - 1e+06 B67(4) + C174(16) - C182(11)
   >= -2.999977e+06
 c97: - 1e+06 B6(14) - 1e+06 B14(10) + 1e+06 B67(4) - C174(16) + C182(11)
   >= -1.999993e+06
 c98: - 1e+06 B7(12) - 1e+06 B15(10) - 1e+06 B67(4) + C175(14) - C183(11)
   >= -2.999973e+06
 c99: - 1e+06 B7(12) - 1e+06 B15(10) + 1e+06 B67(4) - C175(14) + C183(11)
   >= -1.999988e+06
 c100: - 1e+06 B6(14) - 1e+06 B8(14) - 1e+06 B75(4) - C174(16) + C176(14)
   >= -2.999992e+06
 c101: - 1e+06 B6(14) - 1e+06 B8(14) + 1e+06 B75(4) + C174(16) - C176(14)
   >= -1.999994e+06
 c102: - 1e+06 B7(12) - 1e+06 B9(12) - 1e+06 B75(4) - C175(14) + C177(12)
   >= -2.999993e+06
 c103: - 1e+06 B7(12) - 1e+06 B9(12) + 1e+06 B75(4) + C175(14) - C177(12)
   >= -1.999983e+06
 c104: - 1e+06 B8(14) - 1e+06 B10(13) - 1e+06 B77(2) + C176(14) - C178(14)
   >= -2.999984e+06
 c105: - 1e+06 B8(14) - 1e+06 B10(13) + 1e+06 B77(2) - C176(14) + C178(14)
   >= -1.999996e+06
 c106: - 1e+06 B8(14) - 1e+06 B14(10) - 1e+06 B79(4) + C176(14) - C182(11)
   >= -2.999992e+06
 c107: - 1e+06 B8(14) - 1e+06 B14(10) + 1e+06 B79(4) - C176(14) + C182(11)
   >= -1.999986e+06
 c108: - 1e+06 B9(12) - 1e+06 B15(10) - 1e+06 B79(4) + C177(12) - C183(11)
   >= -2.999973e+06
 c109: - 1e+06 B9(12) - 1e+06 B15(10) + 1e+06 B79(4) - C177(12) + C183(11)
   >= -1.999983e+06
 c110: - 1e+06 B6(14) - 1e+06 B10(13) - 1e+06 B87(2) - C174(16) + C178(14)
   >= -2.999994e+06
 c111: - 1e+06 B6(14) - 1e+06 B10(13) + 1e+06 B87(2) + C174(16) - C178(14)
   >= -1.99999e+06
 c112: - 1e+06 B8(14) - 1e+06 B10(13) - 1e+06 B88(2) - C176(14) + C178(14)
   >= -2.999996e+06
 c113: - 1e+06 B8(14) - 1e+06 B10(13) + 1e+06 B88(2) + C176(14) - C178(14)
   >= -1.999984e+06
 c114: - 1e+06 B11(15) - 1e+06 B13(18) - 1e+06 B90(2) + C179(16) - C181(19)
   >= -2.999976e+06
 c115: - 1e+06 B11(15) - 1e+06 B13(18) + 1e+06 B90(2) - C179(16) + C181(19)
   >= -1.999975e+06
 c116: - 1e+06 B10(13) - 1e+06 B14(10) - 1e+06 B91(2) + C178(14) - C182(11)
   >= -2.999994e+06
 c117: - 1e+06 B10(13) - 1e+06 B14(10) + 1e+06 B91(2) - C178(14) + C182(11)
   >= -1.999976e+06
 c118: - 1e+06 B11(15) - 1e+06 B17(18) - 1e+06 B92(2) + C179(16) - C185(18)
   >= -2.999992e+06
 c119: - 1e+06 B11(15) - 1e+06 B17(18) + 1e+06 B92(2) - C179(16) + C185(18)
   >= -1.99998e+06
 c120: - 1e+06 B11(15) - 1e+06 B19(18) - 1e+06 B93(2) + C179(16) - C187(19)
   >= -2.99998e+06
 c121: - 1e+06 B11(15) - 1e+06 B19(18) + 1e+06 B93(2) - C179(16) + C187(19)
   >= -1.999986e+06
 c122: - 1e+06 B11(15) - 1e+06 B22(17) - 1e+06 B95(2) + C179(16) - C190(19)
   >= -2.99999e+06
 c123: - 1e+06 B11(15) - 1e+06 B22(17) + 1e+06 B95(2) - C179(16) + C190(19)
   >= -1.999985e+06
 c124: - 1e+06 B12(12) - 1e+06 B16(12) - 1e+06 B104(4) + C180(13)
   - C184(12) >= -2.999985e+06
 c125: - 1e+06 B12(12) - 1e+06 B16(12) + 1e+06 B104(4) - C180(13)
   + C184(12) >= -1.999977e+06
 c126: - 1e+06 B13(18) - 1e+06 B17(18) - 1e+06 B104(4) + C181(19)
   - C185(18) >= -2.999989e+06
 c127: - 1e+06 B13(18) - 1e+06 B17(18) + 1e+06 B104(4) - C181(19)
   + C185(18) >= -1.999987e+06
 c128: - 1e+06 B12(12) - 1e+06 B18(12) - 1e+06 B105(4) + C180(13)
   - C186(13) >= -2.999985e+06
 c129: - 1e+06 B12(12) - 1e+06 B18(12) + 1e+06 B105(4) - C180(13)
   + C186(13) >= -1.999982e+06
 c130: - 1e+06 B13(18) - 1e+06 B19(18) - 1e+06 B105(4) + C181(19)
   - C187(19) >= -2.999991e+06
 c131: - 1e+06 B13(18) - 1e+06 B19(18) + 1e+06 B105(4) - C181(19)
   + C187(19) >= -1.999988e+06
 c132: - 1e+06 B12(12) - 1e+06 B20(12) - 1e+06 B106(2) + C180(13)
   - C188(12) >= -2.999978e+06
 c133: - 1e+06 B12(12) - 1e+06 B20(12) + 1e+06 B106(2) - C180(13)
   + C188(12) >= -1.999994e+06
 c134: - 1e+06 B13(18) - 1e+06 B22(17) - 1e+06 B107(2) + C181(19)
   - C190(19) >= -2.999992e+06
 c135: - 1e+06 B13(18) - 1e+06 B22(17) + 1e+06 B107(2) - C181(19)
   + C190(19) >= -1.999987e+06
 c136: - 1e+06 B12(12) - 1e+06 B16(12) - 1e+06 B126(4) - C180(13)
   + C184(12) >= -2.999977e+06
 c137: - 1e+06 B12(12) - 1e+06 B16(12) + 1e+06 B126(4) + C180(13)
   - C184(12) >= -1.999985e+06
 c138: - 1e+06 B13(18) - 1e+06 B17(18) - 1e+06 B126(4) - C181(19)
   + C185(18) >= -2.999987e+06
 c139: - 1e+06 B13(18) - 1e+06 B17(18) + 1e+06 B126(4) + C181(19)
   - C185(18) >= -1.999989e+06
 c140: - 1e+06 B16(12) - 1e+06 B18(12) - 1e+06 B129(4) + C184(12)
   - C186(13) >= -2.999977e+06
 c141: - 1e+06 B16(12) - 1e+06 B18(12) + 1e+06 B129(4) - C184(12)
   + C186(13) >= -1.999993e+06
 c142: - 1e+06 B17(18) - 1e+06 B19(18) - 1e+06 B129(4) + C185(18)
   - C187(19) >= -2.999993e+06
 c143: - 1e+06 B17(18) - 1e+06 B19(18) + 1e+06 B129(4) - C185(18)
   + C187(19) >= -1.999977e+06
 c144: - 1e+06 B16(12) - 1e+06 B20(12) - 1e+06 B130(2) + C184(12)
   - C188(12) >= -2.999992e+06
 c145: - 1e+06 B16(12) - 1e+06 B20(12) + 1e+06 B130(2) - C184(12)
   + C188(12) >= -1.999991e+06
 c146: - 1e+06 B17(18) - 1e+06 B22(17) - 1e+06 B131(2) + C185(18)
   - C190(19) >= -2.99999e+06
 c147: - 1e+06 B17(18) - 1e+06 B22(17) + 1e+06 B131(2) - C185(18)
   + C190(19) >= -1.999993e+06
 c148: - 1e+06 B18(12) - 1e+06 B20(12) - 1e+06 B142(2) + C186(13)
   - C188(12) >= -2.999973e+06
 c149: - 1e+06 B18(12) - 1e+06 B20(12) + 1e+06 B142(2) - C186(13)
   + C188(12) >= -1.999989e+06
 c150: - 1e+06 B19(18) - 1e+06 B22(17) - 1e+06 B143(2) + C187(19)
   - C190(19) >= -2.999976e+06
 c151: - 1e+06 B19(18) - 1e+06 B22(17) + 1e+06 B143(2) - C187(19)
   + C190(19) >= -1.999992e+06
 c152: - 1e+06 B18(12) - 1e+06 B20(12) - 1e+06 B153(2) - C186(13)
   + C188(12) >= -2.999989e+06
 c153: - 1e+06 B18(12) - 1e+06 B20(12) + 1e+06 B153(2) + C186(13)
   - C188(12) >= -1.999973e+06
 c154: - 1e+06 B21(14) - 1e+06 B23(13) - 1e+06 B155(2) + C189(14)
   - C191(15) >= -2.99998e+06
 c155: - 1e+06 B21(14) - 1e+06 B23(13) + 1e+06 B155(2) - C189(14)
   + C191(15) >= -1.999988e+06
 c156: - 1e+06 B19(18) - 1e+06 B22(17) - 1e+06 B165(2) - C187(19)
   + C190(19) >= -2.999992e+06
 c157: - 1e+06 B19(18) - 1e+06 B22(17) + 1e+06 B165(2) + C187(19)
   - C190(19) >= -1.999976e+06
 c158: - 1e+06 B21(14) - 1e+06 B23(13) - 1e+06 B166(2) - C189(14)
   + C191(15) >= -2.999988e+06
 c159: - 1e+06 B21(14) - 1e+06 B23(13) + 1e+06 B166(2) + C189(14)
   - C191(15) >= -1.99998e+06
 c160: C168(17) >= 0
 c161: - 3 B0(16) + C168(17) >= 0
 c162: C169(11) >= 0
 c163: - 3 B1(10) + C169(11) >= 0
 c164: C170(19) >= 0
 c165: - B2(18) + C170(19) >= 0
 c166: C171(17) >= 0
 c167: - B3(16) + C171(17) >= 0
 c168: C172(18) >= 0
 c169: C172(18) >= 0
 c170: C173(16) >= 0
 c171: C173(16) >= 0
 c172: C174(16) >= 0
 c173: - 2 B6(14) + C174(16) >= 0
 c174: C175(14) >= 0
 c175: - 2 B7(12) + C175(14) >= 0
 c176: C176(14) >= 0
 c177: - B8(14) + C176(14) >= 0
 c178: C177(12) >= 0
 c179: - B9(12) + C177(12) >= 0
 c180: C178(14) >= 0
 c181: C178(14) >= 0
 c182: C179(16) >= 0
 c183: C179(16) >= 0
 c184: C180(13) >= 0
 c185: - 2 B12(12) + C180(13) >= 0
 c186: C181(19) >= 0
 c187: - 2 B13(18) + C181(19) >= 0
 c188: C182(11) >= 0
 c189: - 3 B14(10) + C182(11) >= 0
 c190: C183(11) >= 0
 c191: - 3 B15(10) + C183(11) >= 0
 c192: C184(12) >= 0
 c193: - 2 B16(12) + C184(12) >= 0
 c194: C185(18) >= 0
 c195: - 2 B17(18) + C185(18) >= 0
 c196: C186(13) >= 0
 c197: - 2 B18(12) + C186(13) >= 0
 c198: C187(19) >= 0
 c199: - 2 B19(18) + C187(19) >= 0
 c200: C188(12) >= 0
 c201: - 3 B20(12) + C188(12) >= 0
 c202: C189(14) >= 0
 c203: - 3 B21(14) + C189(14) >= 0
 c204: C190(19) >= 0
 c205: C190(19) >= 0
 c206: C191(15) >= 0
 c207: C191(15) >= 0
 c208: - 5 B2(18) - 5 B3(16) + C168(17) + C169(11) - C170(19) - C171(17)
   >= 0
 c209: - 2 B4(17) - 4 B5(15) + C170(19) + C171(17) - C172(18) - C173(16)
   >= 0
 c210: - 2 B8(14) - 5 B9(12) + C174(16) + C175(14) - C176(14) - C177(12)
   >= 0
 c211: - 4 B10(13) - 5 B11(15) + C174(16) + C175(14) - C178(14) - C179(16)
   >= 0
 c212: - 3 B14(10) - 2 B15(10) + C180(13) + C181(19) - C182(11) - C183(11)
   >= 0
 c213: - 3 B16(12) - 3 B17(18) + C182(11) + C183(11) - C184(12) - C185(18)
   >= 0
 c214: - 2 B20(12) - 2 B21(14) - C188(12) - C189(14) + C190(19) + C191(15)
   >= 0
 c215: - 4 B22(17) - 5 B23(13) + C186(13) + C187(19) - C190(19) - C191(15)
   >= 0
 c216: - 3 B0(16) - 4 B1(10) - 2 B6(14) - 2 B7(12) - 3 B12(12) - 4 B13(18)
   - 3 B18(12) - 5 B19(18) - C168(17) - C169(11) - C174(16) - C175(14)
   - C180(13) - C181(19) - C186(13) - C187(19) + I192(1) >= 0
Bounds
Binaries
 B0(16) B1(10) B2(18) B3(16) B4(17) B5(15) B6(14) B7(12) B8(14) B9(12)
 B10(13) B11(15) B12(12) B13(18) B14(10) B15(10) B16(12) B17(18) B18(12)
 B19(18) B20(12) B21(14) B22(17) B23(13) B24(0) B25(2) B26(2) B27(2) B28(2)
 B29(0) B30(0) B31(2) B32(0) B33(0) B34(2) B35(2) B36(2) B37(0) B38(4)
 B39(0) B40(0) B41(2) B42(2) B43(0) B44(2) B45(2) B46(2) B47(4) B48(2)
 B49(4) B50(0) B51(0) B52(0) B53(2) B54(2) B55(0) B56(2) B57(2) B58(2)
 B59(4) B60(0) B61(0) B62(0) B63(0) B64(4) B65(2) B66(0) B67(4) B68(0)
 B69(0) B70(0) B71(0) B72(0) B73(0) B74(0) B75(4) B76(0) B77(2) B78(0)
 B79(4) B80(0) B81(0) B82(0) B83(0) B84(0) B85(0) B86(0) B87(2) B88(2)
 B89(0) B90(2) B91(2) B92(2) B93(2) B94(0) B95(2) B96(0) B97(0) B98(0)
 B99(0) B100(0) B101(0) B102(0) B103(0) B104(4) B105(4) B106(2) B107(2)
 B108(0) B109(0) B110(0) B111(0) B112(0) B113(0) B114(0) B115(0) B116(0)
 B117(0) B118(0) B119(0) B120(0) B121(0) B122(0) B123(0) B124(0) B125(0)
 B126(4) B127(0) B128(0) B129(4) B130(2) B131(2) B132(0) B133(0) B134(0)
 B135(0) B136(0) B137(0) B138(0) B139(0) B140(0) B141(0) B142(2) B143(2)
 B144(0) B145(0) B146(0) B147(0) B148(0) B149(0) B150(0) B151(0) B152(0)
 B153(2) B154(0) B155(2) B156(0) B157(0) B158(0) B159(0) B160(0) B161(0)
 B162(0) B163(0) B164(0) B165(2) B166(2) B167(0)
Generals
 I192(1)
End
